data;

set A := 623258 218776 459801 623076 245543 690515 316426 309161 598204 424199 88224 202485 876959 998212 958628 937379 541936 449409 204378 922009 277159 117023 871682 542597 703000 396266 418962 62688 930288 539608 753151 785900 475382 865033 172851 760439 349005 937991 555285 51864 795758 37125 912774 292399 878256 141154 108960 687974 520130 316389 928439 946035 219117 275455 857241 546645 524436 499982 188175 567829 991797 985750 901148 793477 835430 351879 452154 195649 742618 948924 900258 307506 393116 440440 903234 819527 571537 333864 576518 414588 765880 290661 722321 804885 707882 995889 840770 603233 866331 534967 164018 767097 91801 382860 886194 22847;
param T := 24000000;

end;
